certificates/rado_a10_c146_N27.cnf
c Rad2 upper bound instance: x1 + 10*x2 - x3 = 146, interval [1,27]
p cnf 27 144
1 5 15 0
-1 -5 -15 0
1 15 16 0
-1 -15 -16 0
1 17 25 0
-1 -17 -25 0
2 6 15 0
-2 -6 -15 0
2 16 0
-2 -16 0
2 17 26 0
-2 -17 -26 0
3 7 15 0
-3 -7 -15 0
3 16 17 0
-3 -16 -17 0
3 17 27 0
-3 -17 -27 0
4 8 15 0
-4 -8 -15 0
4 16 18 0
-4 -16 -18 0
5 9 15 0
-5 -9 -15 0
5 16 19 0
-5 -16 -19 0
6 10 15 0
-6 -10 -15 0
6 16 20 0
-6 -16 -20 0
1 7 14 0
-1 -7 -14 0
7 11 15 0
-7 -11 -15 0
7 16 21 0
-7 -16 -21 0
2 8 14 0
-2 -8 -14 0
8 12 15 0
-8 -12 -15 0
8 16 22 0
-8 -16 -22 0
3 9 14 0
-3 -9 -14 0
9 13 15 0
-9 -13 -15 0
9 16 23 0
-9 -16 -23 0
4 10 14 0
-4 -10 -14 0
10 14 15 0
-10 -14 -15 0
10 16 24 0
-10 -16 -24 0
5 11 14 0
-5 -11 -14 0
11 15 0
-11 -15 0
11 16 25 0
-11 -16 -25 0
6 12 14 0
-6 -12 -14 0
12 15 16 0
-12 -15 -16 0
12 16 26 0
-12 -16 -26 0
7 13 14 0
-7 -13 -14 0
13 15 17 0
-13 -15 -17 0
13 16 27 0
-13 -16 -27 0
8 14 0
-8 -14 0
14 15 18 0
-14 -15 -18 0
9 14 15 0
-9 -14 -15 0
15 19 0
-15 -19 0
10 14 16 0
-10 -14 -16 0
15 16 20 0
-15 -16 -20 0
1 13 17 0
-1 -13 -17 0
11 14 17 0
-11 -14 -17 0
15 17 21 0
-15 -17 -21 0
2 13 18 0
-2 -13 -18 0
12 14 18 0
-12 -14 -18 0
15 18 22 0
-15 -18 -22 0
3 13 19 0
-3 -13 -19 0
13 14 19 0
-13 -14 -19 0
15 19 23 0
-15 -19 -23 0
4 13 20 0
-4 -13 -20 0
14 20 0
-14 -20 0
15 20 24 0
-15 -20 -24 0
5 13 21 0
-5 -13 -21 0
14 15 21 0
-14 -15 -21 0
15 21 25 0
-15 -21 -25 0
6 13 22 0
-6 -13 -22 0
14 16 22 0
-14 -16 -22 0
15 22 26 0
-15 -22 -26 0
7 13 23 0
-7 -13 -23 0
14 17 23 0
-14 -17 -23 0
15 23 27 0
-15 -23 -27 0
8 13 24 0
-8 -13 -24 0
14 18 24 0
-14 -18 -24 0
9 13 25 0
-9 -13 -25 0
14 19 25 0
-14 -19 -25 0
10 13 26 0
-10 -13 -26 0
14 20 26 0
-14 -20 -26 0
1 12 27 0
-1 -12 -27 0
11 13 27 0
-11 -13 -27 0
14 21 27 0
-14 -21 -27 0
