certificates/rado_a10_c146_N27.drat
15 -25 -26 -27 0
-14 22 -15 -27 0
-15 -26 -27 0
-26 -27 0
d -15 -26 -27 0
15 25 -27 0
25 -27 0
d 15 25 -27 0
-14 -15 -27 0
d -14 22 -15 -27 0
-15 -27 0
d -14 -15 -27 0
-27 0
14 15 0
15 0
-11 0
-19 0
13 0
-9 0
-17 0
3 0
14 0
-7 0
-10 0
-8 0
-18 0
-20 0
-21 0
16 0
-2 0
-1 0
-12 0
-22 0
26 0
0
